src/Chronos/4.1/benchmarks/cnt/cnt.ilp
enter Q
Maximize

97 dSta_0 + 4 d0_3 + 6 d0_3 + 0 d0_3.0 + 30 d0_3.0 + 18 d0_3 + 0 d0_3.0 + 60 d0_3.0 + 7 d1_4 + 0 d1_4 + 0 d1_4.0 + 0 d1_4.0 + 18 d1_4 + 0 d1_4.0 + 60 d1_4.0 + 3 d3_1 + 6 d3_1 + 0 d3_1.0 + 30 d3_1.0 + 18 d3_1 + 0 d3_1.0 + 60 d3_1.0 + 12 d4_7 + 6 d4_7 + 0 d4_7.0 + 30 d4_7.0 + 30 d4_7 + 0 d4_7.0 + 90 d4_7.0 + 5 d5_14 + 0 d5_14 + 0 d5_14.0 + 0 d5_14.0 + 12 d5_14 + 0 d5_14.0 + 60 d5_14.0 + 5 d6_2 + 36 d6_2 + 0 d6_2.0 + 0 d6_2.0 + 60 d6_2 + 0 d6_2.0 + 60 d6_2.0 + 3 d7_8 + 18 d7_8 + 0 d7_8.0 + 60 d7_8.0 + 48 d7_8 + 0 d7_8.0 + 120 d7_8.0 + 1 d8_9 + 0 d8_9 + 0 d8_9.0 + 0 d8_9.0 + 42 d8_9 + 0 d8_9.0 + 0 d8_9.0 + 30 d9_13 + 0 d9_13 + 0 d9_13.0 + 0 d9_13.0 + 36 d9_13 + 0 d9_13.0 + 0 d9_13.0 + 4 d10_11 + 36 d10_11 + 0 d10_11.0 + 0 d10_11.0 + 90 d10_11 + 0 d10_11.0 + 30 d10_11.0 + 1 d10_9 + 36 d10_9 + 0 d10_9.0 + 0 d10_9.0 + 90 d10_9 + 0 d10_9.0 + 30 d10_9.0 + 13 d11_12 + 0 d11_12 + 0 d11_12.0 + 0 d11_12.0 + 84 d11_12 + 0 d11_12.0 + 0 d11_12.0 + 2 d11_8 + 0 d11_8 + 0 d11_8.0 + 0 d11_8.0 + 84 d11_8 + 0 d11_8.0 + 0 d11_8.0 + 2 d12_5 + 108 d12_5 + 0 d12_5.0 + 0 d12_5.0 + 48 d12_5 + 0 d12_5.0 + 120 d12_5.0 + 6 d13_10 + 36 d13_10 + 0 d13_10.0 + 0 d13_10.0 + 498 d13_10 + 42 d13_10.0 + 90 d13_10.0 + 2 d14_15 + 0 d14_15 + 0 d14_15.0 + 0 d14_15.0 + 60 d14_15 + 0 d14_15.0 + 60 d14_15.0 + 3 d15_16 + 0 d15_16 + 0 d15_16.0 + 0 d15_16.0 + 36 d15_16 + 6 d15_16.0 + 0 d15_16.0 + 3 d16_17 + 36 d16_17 + 0 d16_17.0 + 0 d16_17.0 + 60 d16_17 + 12 d16_17.0 + 0 d16_17.0 + 2 d16_18 + 36 d16_18 + 0 d16_18.0 + 0 d16_18.0 + 60 d16_18 + 12 d16_18.0 + 0 d16_18.0 + 4 d17_19 + 0 d17_19 + 0 d17_19.0 + 0 d17_19.0 + 0 d17_19 + 18 d17_19.0 + 90 d17_19.0 + 4 d18_19 + 0 d18_19 + 0 d18_19.0 + 0 d18_19.0 + 0 d18_19 + 12 d18_19.0 + 60 d18_19.0 + 4 d19_20 + 0 d19_20 + 0 d19_20.0 + 0 d19_20.0 + 0 d19_20 + 24 d19_20.0 + 120 d19_20.0 + 3 d19_16 + 0 d19_16 + 0 d19_16.0 + 0 d19_16.0 + 0 d19_16 + 24 d19_16.0 + 120 d19_16.0 + 9 d20_21 + 0 d20_21 + 0 d20_21.0 + 0 d20_21.0 + 6 d20_21 + 18 d20_21.0 + 120 d20_21.0 + 2 d20_15 + 0 d20_15 + 0 d20_15.0 + 0 d20_15.0 + 6 d20_15 + 18 d20_15.0 + 120 d20_15.0 + 7 d21_6 + 18 d21_6 + 0 d21_6.0 + 90 d21_6.0 + 30 d21_6 + 0 d21_6.0 + 90 d21_6.0


Subject to


\ === tcfg constraints ===
dSta_0 = 1
b0 - d0_3 = 0
b0 - dSta_0 = 0
b1 - d1_4 = 0
b1 - d3_1 = 0
b2 - d6_2 = 0
b3 - d3_1 = 0
b3 - d0_3 = 0
b4 - d4_7 = 0
b4 - d1_4 = 0
b5 - d5_14 = 0
b5 - d12_5 = 0
b6 - d6_2 = 0
b6 - d21_6 = 0
b7 - d7_8 = 0
b7 - d4_7 = 0
b8 - d8_9 = 0
b8 - d7_8 - d11_8 = 0
b9 - d9_13 = 0
b9 - d8_9 - d10_9 = 0
b10 - d10_11 - d10_9 = 0
b10 - d13_10 = 0
b11 - d11_12 - d11_8 = 0
b11 - d10_11 = 0
b12 - d12_5 = 0
b12 - d11_12 = 0
b13 - d13_10 = 0
b13 - d9_13 = 0
b14 - d14_15 = 0
b14 - d5_14 = 0
b15 - d15_16 = 0
b15 - d14_15 - d20_15 = 0
b16 - d16_17 - d16_18 = 0
b16 - d15_16 - d19_16 = 0
b17 - d17_19 = 0
b17 - d16_17 = 0
b18 - d18_19 = 0
b18 - d16_18 = 0
b19 - d19_20 - d19_16 = 0
b19 - d17_19 - d18_19 = 0
b20 - d20_21 - d20_15 = 0
b20 - d19_20 = 0
b21 - d21_6 = 0
b21 - d20_21 = 0


\ === tcfg_estunit_cons_ps ===
d0_3 - d0_3.0 >= 0
d0_3.0 <= 1
d1_4 - d1_4.0 >= 0
d1_4.0 <= 1
d3_1 - d3_1.0 >= 0
d3_1.0 <= 1
d4_7 - d4_7.0 >= 0
d4_7.0 <= 1
d5_14 - d5_14.0 >= 0
d5_14.0 <= 1
d6_2 - d6_2.0 >= 0
d6_2.0 <= 1
d7_8 - d7_8.0 >= 0
d7_8.0 <= 1
d8_9 - d8_9.0 >= 0
d8_9.0 <= 1
d9_13 - d9_13.0 >= 0
d9_13.0 <= 1
d10_11 - d10_11.0 >= 0
d10_11.0 <= 1
d10_9 - d10_9.0 >= 0
d10_9.0 <= 1
d11_12 - d11_12.0 >= 0
d11_12.0 <= 1
d11_8 - d11_8.0 >= 0
d11_8.0 <= 1
d12_5 - d12_5.0 >= 0
d12_5.0 <= 1
d13_10 - d13_10.0 >= 0
d13_10.0 <= 1
d14_15 - d14_15.0 >= 0
d14_15.0 <= 1
d15_16 - d15_16.0 >= 0
d15_16.0 <= 1
d16_17 - d16_17.0 >= 0
d16_17.0 <= 1
d16_18 - d16_18.0 >= 0
d16_18.0 <= 1
d17_19 - d17_19.0 >= 0
d17_19.0 <= 1
d18_19 - d18_19.0 >= 0
d18_19.0 <= 1
d19_20 - d19_20.0 >= 0
d19_20.0 <= 1
d19_16 - d19_16.0 >= 0
d19_16.0 <= 1
d20_21 - d20_21.0 >= 0
d20_21.0 <= 1
d20_15 - d20_15.0 >= 0
d20_15.0 <= 1
d21_6 - d21_6.0 >= 0
d21_6.0 <= 1

\ === infeasible path constraints ===

b0 = 1
b1 = 1
b2 = 1
b4 = 1
b5 = 1
b6 = 1
b7 = 1
b8 = 40
b9 = 1600
b10 = 1600
b11 = 40
b12 = 1
b3 = 1
b14 = 1
b15 = 40
b16 = 1600
b19 = 1600
b20 = 40
b21 = 1
b13 = 1600

Generals

Sta
b0
d0_3
b1
d1_4
b2
b3
d3_1
b4
d4_7
b5
d5_14
b6
d6_2
b7
d7_8
b8
d8_9
b9
d9_13
b10
d10_11
d10_9
b11
d11_12
d11_8
b12
d12_5
b13
d13_10
b14
d14_15
b15
d15_16
b16
d16_17
d16_18
b17
d17_19
b18
d18_19
b19
d19_20
d19_16
b20
d20_21
d20_15
b21
d21_6

End
\ total_cons: 116 	total_vars: 49
optimize
set logfile ../benchmarks/cnt/cnt.sol
display solution objective
display solution variables -
quit
